10
5
1005101
0
0
86 85 85 87 79 
1
0
60 59 61 57 63 
2
0
15 13 12 20 14 
3
0
43 47 51 41 48 
4
0
24 17 24 21 21 
5
0
34 42 41 41 40 
6
0
69 66 62 59 62 
7
0
70 73 69 70 62 
8
0
12 13 13 9 7 
9
0
59 54 56 64 56 
